<instance format="XCSP3" type="COP">
  <variables>
    <array id="x" size="[23]"> 0..22 </array>
  </variables>
  <constraints>
    <group>
      <intension> ne(%0,%1) </intension>
      <args> x[0] x[1] </args>
      <args> x[0] x[3] </args>
      <args> x[0] x[6] </args>
      <args> x[0] x[8] </args>
      <args> x[0] x[12] </args>
      <args> x[0] x[14] </args>
      <args> x[0] x[17] </args>
      <args> x[0] x[19] </args>
      <args> x[1] x[2] </args>
      <args> x[1] x[5] </args>
      <args> x[1] x[7] </args>
      <args> x[1] x[11] </args>
      <args> x[1] x[13] </args>
      <args> x[1] x[16] </args>
      <args> x[1] x[18] </args>
      <args> x[2] x[4] </args>
      <args> x[2] x[6] </args>
      <args> x[2] x[9] </args>
      <args> x[2] x[12] </args>
      <args> x[2] x[15] </args>
      <args> x[2] x[17] </args>
      <args> x[2] x[20] </args>
      <args> x[3] x[4] </args>
      <args> x[3] x[5] </args>
      <args> x[3] x[9] </args>
      <args> x[3] x[11] </args>
      <args> x[3] x[15] </args>
      <args> x[3] x[16] </args>
      <args> x[3] x[20] </args>
      <args> x[4] x[7] </args>
      <args> x[4] x[8] </args>
      <args> x[4] x[13] </args>
      <args> x[4] x[14] </args>
      <args> x[4] x[18] </args>
      <args> x[4] x[19] </args>
      <args> x[5] x[10] </args>
      <args> x[5] x[12] </args>
      <args> x[5] x[14] </args>
      <args> x[5] x[21] </args>
      <args> x[6] x[10] </args>
      <args> x[6] x[11] </args>
      <args> x[6] x[13] </args>
      <args> x[6] x[21] </args>
      <args> x[7] x[10] </args>
      <args> x[7] x[12] </args>
      <args> x[7] x[15] </args>
      <args> x[7] x[21] </args>
      <args> x[8] x[10] </args>
      <args> x[8] x[11] </args>
      <args> x[8] x[15] </args>
      <args> x[8] x[21] </args>
      <args> x[9] x[10] </args>
      <args> x[9] x[13] </args>
      <args> x[9] x[14] </args>
      <args> x[9] x[21] </args>
      <args> x[10] x[16] </args>
      <args> x[10] x[17] </args>
      <args> x[10] x[18] </args>
      <args> x[10] x[19] </args>
      <args> x[10] x[20] </args>
      <args> x[11] x[22] </args>
      <args> x[12] x[22] </args>
      <args> x[13] x[22] </args>
      <args> x[14] x[22] </args>
      <args> x[15] x[22] </args>
      <args> x[16] x[22] </args>
      <args> x[17] x[22] </args>
      <args> x[18] x[22] </args>
      <args> x[19] x[22] </args>
      <args> x[20] x[22] </args>
      <args> x[21] x[22] </args>
    </group>
  </constraints>
  <objectives>
    <minimize type="maximum"> x[] </minimize>
  </objectives>
</instance>
